(set-info :smt-lib-version 2.6)
(set-logic QF_UFLRA)
(set-info :source |
MathSat group

|)
(set-info :category "random")
(set-info :status unsat)
(declare-fun x0 () Real)
(declare-fun x1 () Real)
(declare-fun x2 () Real)
(declare-fun x3 () Real)
(declare-fun x4 () Real)
(declare-fun x5 () Real)
(declare-fun x6 () Real)
(declare-fun x7 () Real)
(declare-fun x8 () Real)
(declare-fun x9 () Real)
(declare-fun x10 () Real)
(declare-fun x11 () Real)
(declare-fun x12 () Real)
(declare-fun x13 () Real)
(declare-fun x14 () Real)
(declare-fun x15 () Real)
(declare-fun x16 () Real)
(declare-fun x17 () Real)
(declare-fun x18 () Real)
(declare-fun x19 () Real)
(declare-fun x20 () Real)
(declare-fun x21 () Real)
(declare-fun x22 () Real)
(declare-fun x23 () Real)
(declare-fun x24 () Real)
(declare-fun x25 () Real)
(declare-fun x26 () Real)
(declare-fun x27 () Real)
(declare-fun x28 () Real)
(declare-fun x29 () Real)
(declare-fun f0_1 (Real) Real)
(declare-fun f0_2 (Real Real) Real)
(declare-fun f0_3 (Real Real Real) Real)
(declare-fun f0_4 (Real Real Real Real) Real)
(declare-fun P0 () Bool)
(declare-fun P1 () Bool)
(declare-fun P2 () Bool)
(declare-fun P3 () Bool)
(declare-fun P4 () Bool)
(declare-fun P5 () Bool)
(declare-fun P6 () Bool)
(declare-fun P7 () Bool)
(declare-fun P8 () Bool)
(declare-fun P9 () Bool)
(declare-fun P10 () Bool)
(declare-fun P11 () Bool)
(declare-fun P12 () Bool)
(declare-fun P13 () Bool)
(declare-fun P14 () Bool)
(declare-fun P15 () Bool)
(declare-fun P16 () Bool)
(declare-fun P17 () Bool)
(declare-fun P18 () Bool)
(declare-fun P19 () Bool)
(declare-fun P20 () Bool)
(declare-fun P21 () Bool)
(declare-fun P22 () Bool)
(declare-fun P23 () Bool)
(declare-fun P24 () Bool)
(declare-fun P25 () Bool)
(declare-fun P26 () Bool)
(declare-fun P27 () Bool)
(declare-fun P28 () Bool)
(declare-fun P29 () Bool)
(assert (let ((?v_64 (* 32 x14)) (?v_73 (* 18 x3)) (?v_78 (* 37 x9)) (?v_31 (* 29 x22)) (?v_87 (= (- (+ (* 38 x5) (* 38 x8)) (* 39 x14)) 21)) (?v_20 (* 2 x26)) (?v_16 (<= (+ (- (* 12 x19) (* 4 x25)) (* 7 x26)) 31)) (?v_114 (distinct x2 x11)) (?v_55 (distinct (f0_2 x3 x26) (f0_2 x4 x16))) (?v_60 (= x1 x12)) (?v_56 (= x17 x5)) (?v_3 (f0_1 x3))) (let ((?v_13 (distinct ?v_3 (f0_1 x7))) (?v_52 (distinct x13 (f0_2 x5 x16))) (?v_8 (f0_1 x1))) (let ((?v_67 (distinct ?v_8 x13)) (?v_84 (distinct (f0_2 x22 x17) (f0_2 x6 x11))) (?v_25 (= (f0_1 x8) x28)) (?v_37 (f0_1 x26))) (let ((?v_49 (distinct ?v_37 (f0_2 x25 x15))) (?v_41 (distinct x9 (f0_2 x26 x19))) (?v_162 (distinct ?v_8 x6)) (?v_77 (= (f0_2 x1 x23) ?v_37)) (?v_14 (= (f0_1 x13) (f0_2 x27 x7))) (?v_22 (f0_1 x16))) (let ((?v_51 (= (f0_1 x23) ?v_22)) (?v_131 (distinct (f0_2 x17 x3) (f0_2 x23 x7))) (?v_27 (distinct (f0_1 x19) x10)) (?v_115 (distinct x9 (f0_2 x0 x27))) (?v_109 (distinct x7 (f0_2 x8 x19))) (?v_17 (distinct (f0_2 x13 x17) x4)) (?v_68 (distinct x15 (f0_1 x5))) (?v_46 (f0_1 x15))) (let ((?v_42 (= (f0_2 x6 x4) ?v_46)) (?v_23 (distinct (f0_2 x4 x28) (f0_2 x12 x8))) (?v_70 (= x13 (f0_1 x11))) (?v_107 (distinct x0 (f0_1 x27))) (?v_156 (= ?v_22 x17)) (?v_152 (= ?v_46 (f0_2 x15 x7))) (?v_4 (= (f0_2 x10 x23) ?v_3)) (?v_99 (= ?v_8 x27)) (?v_53 (distinct x13 ?v_8))) (let ((?v_0 (not ?v_70)) (?v_86 (not P1)) (?v_2 (not P4)) (?v_40 (not ?v_84)) (?v_9 (not P18)) (?v_33 (not P26)) (?v_74 (not ?v_14)) (?v_7 (not ?v_56)) (?v_48 (not P17)) (?v_29 (not ?v_17)) (?v_135 (not ?v_41)) (?v_45 (not P29)) (?v_10 (not ?v_114)) (?v_61 (not ?v_162)) (?v_21 (not ?v_51)) (?v_26 (not P2)) (?v_47 (not P14)) (?v_38 (not P19)) (?v_65 (not P28)) (?v_44 (not ?v_99)) (?v_100 (not P9)) (?v_34 (not ?v_16)) (?v_18 (not P22)) (?v_85 (not P21)) (?v_35 (not ?v_156)) (?v_145 (not ?v_25))) (let ((?v_81 (or ?v_145 P6)) (?v_79 (not P16)) (?v_149 (not P23)) (?v_130 (not P11)) (?v_89 (not P5)) (?v_155 (not P20)) (?v_116 (not P0)) (?v_126 (not P10)) (?v_110 (not P3))) (let ((?v_161 (or ?v_110 P10)) (?v_123 (not ?v_152)) (?v_108 (not ?v_67)) (?v_76 (not ?v_49)) (?v_102 (not ?v_52)) (?v_92 (not ?v_53)) (?v_71 (not ?v_27)) (?v_94 (not ?v_4)) (?v_57 (not ?v_55)) (?v_113 (not P15)) (?v_105 (not P6)) (?v_83 (not P25)) (?v_80 (not ?v_60)) (?v_121 (not P27)) (?v_96 (not ?v_23)) (?v_93 (not ?v_68)) (?v_129 (not P7)) (?v_101 (not ?v_77)) (?v_120 (not P8)) (?v_134 (not P13)) (?v_103 (not ?v_13)) (?v_117 (not P24)) (?v_153 (not ?v_107)) (?v_128 (not ?v_42)) (?v_146 (not ?v_87)) (?v_138 (not P12)) (?v_154 (not ?v_109)) (?v_158 (not ?v_131)) (?v_144 (not ?v_115)) (?v_28 (< (+ (* 36 x19) (* 35 x24)) 35)) (?v_54 (<= (+ (* 33 x20) (* 16 x29) ?v_31) 13)) (?v_58 (<= (+ (* 42 x6) (* 3 x21) (* 11 x12)) 42)) (?v_122 (= (+ (* 11 x26) (* 9 x25)) 35))) (let ((?v_124 (not ?v_122)) (?v_141 (not ?v_58)) (?v_95 (<= (+ (- (* 17 x1) 0) ?v_78) 21))) (let ((?v_132 (not ?v_95)) (?v_157 (not ?v_28)) (?v_147 (not ?v_54)) (?v_69 (distinct (- (- (* (- 15) x28) ?v_20) (* 31 x21)) 32)) (?v_32 (< (- (* 31 x12) 0) (- 6)))) (let ((?v_19 (not ?v_32)) (?v_1 (< (- (- (* (- 4) x9) ?v_31) 0) (- 20))) (?v_150 (<= (+ (* 35 x6) (* 13 x6) (* 21 x26)) (- 33)))) (let ((?v_160 (not ?v_1)) (?v_30 (* (- 34) x4))) (let ((?v_5 (< (- (- ?v_30 (* 9 x22)) (* 18 x11)) 42))) (let ((?v_15 (not ?v_5)) (?v_82 (distinct (- (- (* 22 x20) (* 17 x15)) (* 2 x3)) (- 44))) (?v_88 (< (+ (* (- 35) x22) (* 27 x28) (* 5 x8)) 8))) (let ((?v_98 (not ?v_88)) (?v_12 (< (- (+ (* 42 x13) (* 5 x19)) (* 6 x8)) (- 31))) (?v_6 (distinct (- (- (* (- 18) x28) (* 37 x20)) 0) 20)) (?v_39 (<= (- (+ (* 31 x15) (* 3 x15)) (* 5 x6)) (- 32))) (?v_97 (= (- (- (* 39 x22) (* 31 x19)) (* 33 x25)) (- 21)))) (let ((?v_11 (not ?v_97)) (?v_36 (<= (- (- (* (- 2) x29) (* 31 x26)) ?v_78) (- 24)))) (let ((?v_66 (not ?v_36)) (?v_72 (<= (+ (- (* 41 x16) (* 39 x5)) x28) (- 24))) (?v_63 (< (+ (* 26 x10) (* 16 x10) (* 25 x21)) (- 38))) (?v_24 (< (- (- ?v_64 ?v_20) (* 4 x6)) (- 29))) (?v_75 (<= (- (- (* (- 31) x22) (* 23 x11)) (* 26 x5)) 0))) (let ((?v_142 (not ?v_24)) (?v_59 (<= (+ ?v_30 (* 12 x14) (* 29 x13)) (- 12))) (?v_143 (< (+ (- (* 39 x29) (* 24 x10)) (* 38 x10)) (- 1)))) (let ((?v_43 (not ?v_143)) (?v_62 (not ?v_39)) (?v_90 (<= (- (- (* (- 35) x2) (* 10 x25)) ?v_73) 8))) (let ((?v_50 (not ?v_90)) (?v_119 (distinct (+ (- (* (- 37) x18) (* 8 x19)) (* 26 x23)) 44)) (?v_118 (= (- (- ?v_64 x10) (* 30 x14)) (- 12))) (?v_104 (not ?v_63)) (?v_111 (not ?v_72)) (?v_112 (= (- (- (* 31 x17) ?v_73) (* 12 x25)) (- 15))) (?v_106 (not ?v_12)) (?v_91 (not ?v_82)) (?v_125 (not ?v_6))) (let ((?v_148 (or P16 ?v_91)) (?v_139 (not ?v_112)) (?v_159 (not ?v_75)) (?v_140 (not ?v_59)) (?v_133 (not ?v_118)) (?v_137 (< (+ (- (* (- 2) x17) (* 31 x4)) (* 33 x12)) (- 40)))) (let ((?v_127 (not ?v_137)) (?v_136 (not ?v_69)) (?v_151 (not ?v_150)) (?v_163 (not ?v_119))) (and (and (and (and (and (and (and (and (and (and (and (and (and (and (and (and (and (and (and (and (and (and (and (and (and (and (and (and (and (and (and (and (and (and (and (and (and (and (and (and (and (and (and (and (and (and (and (and (and (and (and (and (and (and (and (and (and (and (and (and (and (and (and (and (and (and (and (and (and (and (and (and (and (and (and (and (and (and (and (and (and (and (and (and (and (and (and (and (and (and (and (and (and (and (and (and (and (and (and (and (and (and (and (and (and (and (and (and (and (and (and (and (and (and (and (and (and (and (and (and (and (and (and (and (and (and (and (and (and (and (and (and (and (and (and (and (and (and (and (and (and (and (and (and (and (and (and (and (and (and (and (and (and (and (and (and (and (and (and (and (and (and (and (and (and (and (and (and (and (and (and (and (and (and (and (and (and (and (and (and (and (and (and (and (and (and (and (and (and (and (and (and (and (and (and (and (and (and (and (and (and (and (and (and (and (and (and (and (and (and (and (and (and (and (and (and (and (and (and (and (and (and (and (and (and (and (and (and (and (and (and (and (and (and (and (and (and (and (and (and (and (and (and (and (and (and (and (and (and (and (and (and (and (and (and (and (and (and (and (and (and (and (and (and (and (and (and (and (and (and (and (and (and (and (and (and (and (and (and (and (and (and (and (and (and (and (and (and (and (and (and (and (and (and (and (and (and (and (and (and (and (and (and (and (and (and (and (and (and (and (and (and (and (and (and (and (and (and (and (and (and (and (and (and (and (and (and (and (and (and (and (and (and (and (and (and (and (and (and (and (and (and (and (and (and (and (and (and (and (and (and (and (and (and (and (and (and (and (and (and (and (and (and (and (and (and (and (and (and (and (and (and (and (and (and (and (and (and (and (and (and (and (and (and (and (and (and (and (and (and (and (and (and (and (and (and (and (and (and (and (and (and (and (and (and (and (and (and (and (and (and (and (and (and (and (and (and (and (and (and (and (and (and (and (and (and (and (and (and (and (and (and (and (and (and (and (and (and (and (and (and (and (and (and (and (and (and (and (and (or (or ?v_69 ?v_0) ?v_86) (or (or ?v_2 ?v_16) P29)) (or (or ?v_0 ?v_0) P9)) (or (or P17 ?v_60) P6)) (or (or ?v_40 ?v_9) ?v_4)) (or (or ?v_42 ?v_19) ?v_33)) (or (or ?v_1 ?v_74) ?v_52)) (or (or ?v_25 ?v_150) ?v_28)) (or (or ?v_77 ?v_160) P17)) (or (or ?v_15 ?v_82) ?v_98)) (or (or ?v_7 P25) ?v_27)) (or (or ?v_2 ?v_48) ?v_29)) (or (or ?v_13 ?v_12) ?v_4)) (or (or ?v_135 P8) ?v_5)) (or (or ?v_6 ?v_6) ?v_53)) (or (or ?v_7 ?v_45) ?v_10)) (or (or ?v_39 ?v_61) ?v_11)) (or (or ?v_9 ?v_66) ?v_10)) (or (or ?v_21 ?v_11) ?v_12)) (or (or ?v_26 ?v_72) ?v_47)) (or (or P16 ?v_38) ?v_65)) (or (or ?v_13 P5) ?v_14)) (or (or ?v_15 ?v_44) ?v_23)) (or (or ?v_100 P17) ?v_34)) (or (or P27 ?v_17) ?v_18)) (or (or ?v_17 ?v_85) ?v_63)) (or (or P3 ?v_87) ?v_18)) (or (or ?v_19 P10) ?v_24)) (or (or ?v_21 ?v_13) ?v_35)) (or (or P26 ?v_12) P14)) (or (or ?v_75 ?v_23) ?v_142)) (or ?v_81 ?v_4)) (or (or P6 ?v_26) ?v_27)) (or (or ?v_28 ?v_29) ?v_59)) (or (or ?v_79 ?v_149) P7)) (or (or ?v_54 ?v_130) ?v_32)) (or (or P19 ?v_33) P2)) (or (or ?v_89 ?v_18) ?v_15)) (or (or P25 P15) P19)) (or (or ?v_43 ?v_17) ?v_155)) (or (or ?v_34 ?v_35) P11)) (or (or ?v_36 ?v_49) ?v_38)) (or (or ?v_10 P2) ?v_62)) (or (or ?v_40 ?v_41) ?v_116)) (or (or ?v_126 ?v_42) ?v_50)) (or ?v_161 P13)) (or (or ?v_0 ?v_58) ?v_55)) (or (or ?v_43 P20) ?v_44)) (or (or ?v_45 ?v_29) P25)) (or (or ?v_12 ?v_16) ?v_123)) (or (or ?v_109 ?v_47) ?v_48)) (or (or ?v_108 ?v_76) P16)) (or (or ?v_50 ?v_51) ?v_102)) (or (or ?v_92 ?v_71) ?v_23)) (or (or ?v_94 ?v_54) ?v_57)) (or (or ?v_11 ?v_56) ?v_113)) (or (or ?v_57 ?v_58) ?v_105)) (or (or ?v_119 ?v_83) ?v_59)) (or (or ?v_24 ?v_80) ?v_38)) (or (or ?v_61 ?v_62) ?v_63)) (or (or ?v_33 ?v_58) ?v_13)) (or (or ?v_45 ?v_32) P13)) (or (or ?v_9 P2) ?v_41)) (or (or ?v_118 ?v_65) ?v_66)) (or (or ?v_104 ?v_7) ?v_9)) (or (or ?v_28 ?v_121) ?v_96)) (or (or ?v_59 ?v_68) P5)) (or (or ?v_13 ?v_34) ?v_67)) (or (or ?v_29 ?v_47) ?v_2)) (or (or P2 ?v_93) ?v_69)) (or (or P26 ?v_23) ?v_70)) (or (or ?v_54 P26) ?v_71)) (or (or ?v_27 ?v_111) ?v_112)) (or (or ?v_66 ?v_52) ?v_124)) (or (or ?v_59 ?v_56) ?v_141)) (or (or ?v_74 ?v_106) ?v_75)) (or (or P12 ?v_67) ?v_33)) (or (or ?v_76 ?v_21) ?v_74)) (or (or ?v_129 P2) ?v_101)) (or (or ?v_132 P22) ?v_79)) (or (or ?v_66 P9) ?v_80)) (or ?v_81 ?v_91)) (or (or ?v_35 ?v_28) ?v_83)) (or (or ?v_51 ?v_47) ?v_26)) (or (or ?v_27 ?v_84) P0)) (or (or P27 ?v_82) ?v_125)) (or (or ?v_28 ?v_7) P4)) (or (or ?v_60 ?v_85) ?v_86)) (or (or P3 ?v_25) ?v_29)) (or (or ?v_87 P13) ?v_65)) (or (or ?v_28 ?v_88) ?v_89)) (or (or ?v_120 ?v_27) ?v_66)) (or (or ?v_90 ?v_39) P16)) (or (or ?v_67 ?v_91) ?v_53)) (or (or ?v_92 ?v_45) ?v_10)) (or (or ?v_93 ?v_134) ?v_80)) (or (or ?v_94 ?v_157) ?v_103)) (or (or ?v_12 ?v_115) ?v_95)) (or (or ?v_65 ?v_6) ?v_117)) (or (or ?v_48 ?v_67) ?v_11)) (or (or ?v_96 ?v_96) P18)) (or (or ?v_153 P15) ?v_84)) (or (or ?v_86 P19) ?v_52)) (or (or ?v_40 ?v_97) ?v_98)) (or (or ?v_55 ?v_62) ?v_99)) (or (or ?v_89 ?v_98) ?v_79)) (or (or ?v_100 ?v_99) P17)) (or (or ?v_101 P27) ?v_102)) (or (or ?v_95 ?v_1) ?v_103)) (or (or ?v_84 ?v_104) P6)) (or (or ?v_105 ?v_39) ?v_70)) (or (or ?v_1 ?v_19) ?v_85)) (or (or ?v_9 ?v_105) ?v_1)) (or (or ?v_98 ?v_80) ?v_106)) (or (or P28 ?v_19) ?v_107)) (or ?v_148 ?v_49)) (or (or ?v_58 ?v_101) ?v_56)) (or (or ?v_43 ?v_51) ?v_28)) (or (or ?v_16 ?v_50) ?v_63)) (or (or ?v_77 ?v_101) ?v_97)) (or (or ?v_108 ?v_128) ?v_109)) (or (or P3 ?v_110) ?v_90)) (or (or ?v_2 ?v_39) ?v_38)) (or (or ?v_15 P18) ?v_12)) (or (or ?v_44 ?v_111) ?v_26)) (or (or ?v_10 P1) P11)) (or (or ?v_139 ?v_1) ?v_92)) (or (or ?v_146 ?v_10) ?v_93)) (or (or P16 ?v_66) P17)) (or (or ?v_138 ?v_90) ?v_113)) (or (or ?v_35 ?v_159) ?v_104)) (or (or P7 ?v_9) ?v_53)) (or (or ?v_140 ?v_114) ?v_29)) (or (or P24 ?v_47) ?v_89)) (or (or ?v_10 ?v_74) ?v_115)) (or (or ?v_116 ?v_52) P9)) (or (or ?v_16 ?v_95) ?v_154)) (or (or ?v_117 ?v_47) P0)) (or (or P13 ?v_79) P14)) (or (or ?v_53 ?v_133) ?v_119)) (or (or P20 ?v_120) P16)) (or (or ?v_0 P16) ?v_33)) (or (or ?v_127 ?v_110) ?v_121)) (or (or ?v_158 ?v_24) ?v_60)) (or (or ?v_38 ?v_110) ?v_50)) (or (or ?v_122 P3) ?v_68)) (or (or ?v_123 ?v_113) ?v_48)) (or (or ?v_27 ?v_53) ?v_14)) (or (or P15 ?v_120) ?v_118)) (or (or ?v_107 ?v_80) ?v_10)) (or (or ?v_29 ?v_124) ?v_125)) (or (or ?v_93 ?v_101) ?v_118)) (or (or ?v_126 ?v_90) ?v_77)) (or (or ?v_96 ?v_136) ?v_62)) (or (or ?v_52 ?v_127) ?v_40)) (or (or P15 ?v_128) ?v_118)) (or (or ?v_19 P25) ?v_98)) (or (or ?v_129 ?v_5) ?v_13)) (or (or ?v_33 ?v_130) P1)) (or (or P12 ?v_131) ?v_25)) (or (or ?v_63 P17) ?v_49)) (or (or P22 ?v_48) ?v_83)) (or (or ?v_132 ?v_43) ?v_52)) (or (or ?v_97 ?v_55) ?v_13)) (or (or ?v_25 ?v_132) ?v_111)) (or (or ?v_112 ?v_10) ?v_69)) (or (or ?v_103 ?v_86) ?v_133)) (or (or ?v_7 ?v_44) ?v_32)) (or (or ?v_114 ?v_10) ?v_99)) (or (or ?v_59 ?v_114) ?v_69)) (or (or ?v_43 ?v_110) ?v_124)) (or (or P24 ?v_29) P11)) (or (or ?v_118 ?v_134) ?v_40)) (or (or ?v_101 ?v_5) ?v_18)) (or (or ?v_47 ?v_106) ?v_19)) (or (or P27 P2) P6)) (or (or P14 P19) ?v_132)) (or (or ?v_101 ?v_63) ?v_102)) (or (or ?v_71 P20) P28)) (or (or ?v_116 ?v_0) ?v_16)) (or (or ?v_117 ?v_74) ?v_92)) (or (or ?v_55 ?v_80) ?v_104)) (or (or P8 ?v_17) ?v_135)) (or (or ?v_60 ?v_6) ?v_50)) (or (or ?v_66 ?v_92) ?v_41)) (or (or ?v_121 ?v_103) ?v_136)) (or (or ?v_32 ?v_13) P1)) (or (or ?v_137 ?v_138) ?v_77)) (or (or ?v_1 P17) ?v_88)) (or (or ?v_124 ?v_144) ?v_36)) (or (or ?v_102 P8) P21)) (or (or ?v_83 P10) ?v_7)) (or (or ?v_139 ?v_136) ?v_67)) (or (or P2 ?v_14) P23)) (or (or ?v_36 ?v_88) ?v_112)) (or (or ?v_58 ?v_107) ?v_11)) (or (or ?v_9 P23) ?v_100)) (or (or P1 ?v_6) ?v_99)) (or (or ?v_136 ?v_5) ?v_35)) (or (or ?v_99 ?v_85) ?v_63)) (or (or ?v_52 ?v_103) ?v_140)) (or (or ?v_18 ?v_27) P0)) (or (or ?v_108 ?v_114) ?v_83)) (or (or ?v_112 ?v_147) P22)) (or (or ?v_9 ?v_141) ?v_45)) (or (or ?v_114 ?v_42) P11)) (or (or ?v_142 P25) ?v_75)) (or (or ?v_143 ?v_93) ?v_66)) (or (or ?v_95 P12) P1)) (or (or ?v_144 ?v_77) P24)) (or (or ?v_38 P20) ?v_114)) (or (or ?v_111 ?v_72) ?v_14)) (or (or ?v_24 ?v_108) ?v_97)) (or (or ?v_69 ?v_137) ?v_56)) (or (or ?v_1 ?v_4) ?v_91)) (or (or ?v_119 ?v_145) ?v_66)) (or (or ?v_39 ?v_146) P2)) (or (or ?v_147 ?v_57) ?v_109)) (or (or P25 ?v_120) ?v_56)) (or (or P12 ?v_83) ?v_77)) (or (or ?v_24 ?v_124) ?v_144)) (or (or P24 ?v_100) P4)) (or (or ?v_93 ?v_143) P12)) (or (or P15 ?v_118) ?v_36)) (or (or P13 ?v_77) ?v_121)) (or (or ?v_26 ?v_134) ?v_133)) (or (or ?v_115 ?v_131) ?v_120)) (or (or ?v_95 P4) ?v_40)) (or ?v_148 ?v_75)) (or (or ?v_137 ?v_114) ?v_123)) (or (or ?v_74 ?v_74) ?v_9)) (or (or ?v_137 ?v_62) ?v_16)) (or (or P15 ?v_1) ?v_84)) (or (or ?v_36 ?v_114) ?v_149)) (or (or ?v_1 ?v_129) ?v_151)) (or (or ?v_118 ?v_106) P1)) (or (or ?v_62 ?v_34) P3)) (or (or ?v_121 ?v_110) ?v_32)) (or (or ?v_12 ?v_42) ?v_19)) (or (or ?v_65 ?v_101) P9)) (or (or ?v_144 ?v_120) P23)) (or (or ?v_85 ?v_80) ?v_41)) (or (or ?v_72 P4) ?v_119)) (or (or ?v_94 ?v_94) ?v_67)) (or (or P17 ?v_145) P4)) (or (or ?v_75 ?v_141) ?v_5)) (or (or ?v_1 ?v_35) ?v_13)) (or (or ?v_132 ?v_56) P24)) (or (or ?v_90 ?v_117) P13)) (or (or ?v_151 ?v_146) ?v_121)) (or (or ?v_54 ?v_11) P15)) (or (or ?v_0 ?v_118) ?v_127)) (or (or ?v_121 ?v_132) ?v_106)) (or (or ?v_11 ?v_67) ?v_49)) (or (or P22 P3) ?v_152)) (or (or P8 ?v_56) ?v_128)) (or (or ?v_55 ?v_129) P13)) (or (or P26 ?v_133) ?v_84)) (or (or ?v_104 ?v_10) P9)) (or (or ?v_109 ?v_147) ?v_105)) (or (or ?v_27 P6) P14)) (or (or ?v_107 ?v_76) ?v_89)) (or (or ?v_111 ?v_77) ?v_151)) (or (or P13 ?v_50) ?v_68)) (or (or ?v_70 ?v_98) ?v_125)) (or (or ?v_116 ?v_19) ?v_61)) (or (or ?v_66 P19) ?v_62)) (or (or ?v_11 ?v_123) ?v_40)) (or (or ?v_114 ?v_9) ?v_132)) (or (or ?v_143 ?v_153) ?v_152)) (or (or ?v_96 ?v_59) ?v_72)) (or (or P11 ?v_154) ?v_123)) (or (or ?v_153 ?v_96) ?v_90)) (or (or ?v_71 ?v_40) P26)) (or (or ?v_155 ?v_100) ?v_38)) (or (or P29 ?v_152) ?v_43)) (or (or ?v_126 ?v_82) ?v_9)) (or (or ?v_114 ?v_99) ?v_156)) (or (or ?v_0 ?v_95) ?v_88)) (or (or ?v_5 ?v_115) ?v_133)) (or (or P17 ?v_111) ?v_69)) (or (or ?v_74 ?v_69) ?v_60)) (or (or ?v_67 ?v_70) ?v_6)) (or (or P23 ?v_123) ?v_109)) (or (or P17 ?v_136) ?v_135)) (or (or ?v_28 ?v_10) ?v_44)) (or (or ?v_15 ?v_113) ?v_95)) (or (or ?v_13 ?v_33) P15)) (or (or ?v_142 ?v_52) P9)) (or (or ?v_43 ?v_120) ?v_53)) (or (or ?v_11 ?v_39) ?v_121)) (or (or ?v_104 ?v_72) ?v_107)) (or (or P14 ?v_52) ?v_61)) (or (or ?v_67 ?v_6) ?v_82)) (or (or ?v_154 ?v_119) ?v_13)) (or (or ?v_88 ?v_157) ?v_132)) (or (or P9 ?v_47) ?v_82)) (or (or ?v_60 ?v_127) ?v_77)) (or (or ?v_87 ?v_84) ?v_101)) (or (or ?v_89 ?v_142) ?v_82)) (or (or ?v_42 ?v_94) P12)) (or (or ?v_68 ?v_118) P15)) (or (or ?v_112 P8) P7)) (or (or ?v_101 ?v_40) ?v_26)) (or (or P17 ?v_51) ?v_92)) (or (or ?v_100 ?v_69) ?v_98)) (or (or ?v_16 P13) ?v_92)) (or (or ?v_125 ?v_155) P24)) (or (or ?v_51 ?v_146) P2)) (or (or ?v_5 ?v_106) ?v_42)) (or (or ?v_122 ?v_114) ?v_116)) (or (or P14 ?v_99) ?v_147)) (or (or ?v_158 ?v_80) ?v_143)) (or (or P5 ?v_163) ?v_131)) (or (or ?v_98 ?v_52) ?v_9)) (or (or ?v_56 ?v_110) P12)) (or (or ?v_152 ?v_133) ?v_86)) (or (or ?v_155 ?v_74) ?v_41)) (or (or ?v_10 ?v_138) P4)) (or (or ?v_104 ?v_146) ?v_118)) (or (or ?v_44 ?v_98) ?v_137)) (or (or P29 ?v_87) ?v_55)) (or (or ?v_5 ?v_141) P15)) (or (or ?v_13 P23) ?v_62)) (or (or ?v_127 ?v_118) ?v_12)) (or (or ?v_82 ?v_51) ?v_144)) (or (or ?v_6 ?v_0) ?v_141)) (or (or ?v_130 ?v_44) ?v_72)) (or (or ?v_119 ?v_126) ?v_108)) (or (or P18 ?v_44) ?v_16)) (or (or ?v_74 P16) ?v_114)) (or (or ?v_95 ?v_132) ?v_38)) (or (or ?v_49 ?v_122) ?v_40)) (or (or ?v_16 P6) ?v_62)) (or (or ?v_53 ?v_86) ?v_131)) (or (or ?v_50 ?v_60) P19)) (or (or ?v_61 ?v_87) ?v_129)) (or (or ?v_88 ?v_23) ?v_45)) (or (or ?v_50 ?v_92) ?v_39)) (or (or ?v_9 P29) ?v_15)) (or (or ?v_21 ?v_88) ?v_125)) (or (or ?v_6 P6) ?v_50)) (or (or ?v_68 ?v_67) ?v_57)) (or (or ?v_77 ?v_59) ?v_41)) (or (or ?v_13 ?v_115) ?v_38)) (or (or ?v_120 ?v_95) ?v_53)) (or (or ?v_103 ?v_21) ?v_39)) (or (or ?v_124 ?v_27) P9)) (or (or ?v_27 ?v_98) ?v_67)) (or (or ?v_25 ?v_49) ?v_67)) (or (or ?v_130 ?v_96) ?v_145)) (or (or ?v_144 P8) ?v_44)) (or (or P13 ?v_127) P1)) (or (or ?v_93 ?v_89) ?v_21)) (or (or P0 ?v_36) ?v_133)) (or (or P9 ?v_92) ?v_35)) (or (or ?v_110 ?v_112) ?v_69)) (or (or ?v_132 ?v_153) ?v_39)) (or (or P29 P4) P13)) (or (or ?v_77 ?v_138) ?v_15)) (or (or ?v_83 P29) P18)) (or (or ?v_44 ?v_135) ?v_83)) (or (or P15 ?v_93) ?v_63)) (or (or P27 ?v_79) P6)) (or (or ?v_105 ?v_154) ?v_159)) (or (or ?v_63 ?v_160) ?v_88)) (or (or ?v_118 ?v_137) ?v_96)) (or (or P21 P22) ?v_39)) (or (or ?v_135 ?v_111) ?v_120)) (or (or ?v_110 ?v_121) ?v_95)) (or (or ?v_104 ?v_26) ?v_95)) (or (or ?v_126 ?v_45) ?v_106)) (or (or ?v_17 ?v_75) P0)) (or (or ?v_82 ?v_132) ?v_140)) (or (or ?v_123 ?v_41) ?v_102)) (or (or ?v_132 ?v_44) ?v_40)) (or (or P29 P27) P23)) (or (or ?v_84 ?v_28) ?v_44)) (or (or ?v_15 ?v_128) ?v_99)) (or (or ?v_119 ?v_67) ?v_16)) (or (or ?v_16 ?v_23) ?v_67)) (or (or ?v_32 ?v_33) ?v_70)) (or (or ?v_144 ?v_40) ?v_133)) (or (or ?v_128 ?v_120) ?v_14)) (or (or ?v_56 ?v_80) ?v_98)) (or (or ?v_115 ?v_57) ?v_49)) (or (or ?v_121 ?v_140) ?v_118)) (or (or P29 P3) ?v_97)) (or (or ?v_85 P28) ?v_120)) (or (or ?v_138 ?v_160) ?v_110)) (or (or ?v_159 ?v_110) ?v_120)) (or ?v_161 ?v_96)) (or (or ?v_62 ?v_41) ?v_11)) (or (or P8 ?v_53) ?v_4)) (or (or ?v_52 ?v_87) ?v_55)) (or (or P11 P4) ?v_87)) (or (or ?v_82 P20) ?v_92)) (or (or ?v_138 ?v_1) ?v_89)) (or (or P13 P18) ?v_36)) (or (or P21 P8) ?v_150)) (or (or ?v_69 ?v_127) P20)) (or (or ?v_98 P20) P21)) (or (or ?v_18 P17) ?v_159)) (or (or ?v_12 ?v_13) ?v_9)) (or (or ?v_90 ?v_107) ?v_45)) (or (or ?v_43 P1) ?v_25)) (or (or ?v_142 ?v_97) ?v_10)) (or (or ?v_131 ?v_19) ?v_4)) (or (or ?v_84 ?v_57) ?v_94)) (or (or ?v_112 ?v_144) ?v_66)) (or (or ?v_111 ?v_131) P27)) (or (or ?v_113 P12) ?v_45)) (or (or ?v_53 ?v_21) ?v_95)) (or (or ?v_66 ?v_162) ?v_120)) (or (or ?v_121 ?v_128) P5)) (or (or ?v_147 ?v_141) ?v_119)) (or (or ?v_58 ?v_146) ?v_92)) (or (or ?v_128 ?v_52) ?v_112)) (or (or ?v_39 P9) ?v_28)) (or (or ?v_111 ?v_24) ?v_54)) (or (or ?v_18 ?v_28) ?v_109)) (or (or ?v_162 ?v_107) ?v_130)) (or (or ?v_97 ?v_14) P7)) (or (or ?v_90 P27) ?v_162)) (or (or ?v_162 ?v_45) ?v_25)) (or (or P23 ?v_150) ?v_133)) (or (or P29 ?v_110) ?v_139)) (or (or ?v_90 ?v_134) P21)) (or (or ?v_68 ?v_150) ?v_67)) (or (or ?v_62 ?v_113) ?v_12)) (or (or ?v_144 ?v_75) ?v_129)) (or (or ?v_59 ?v_25) ?v_147)) (or (or ?v_62 ?v_106) ?v_29)) (or (or ?v_123 P10) ?v_16)) (or (or ?v_49 ?v_157) P29)) (or (or ?v_49 ?v_93) ?v_139)) (or (or ?v_75 P16) P15)) (or (or P12 P29) ?v_103)) (or (or ?v_163 P20) P2)) (or (or ?v_105 ?v_101) ?v_6)) (or (or ?v_39 ?v_106) P18)) (or (or ?v_49 ?v_23) ?v_153)) (or (or ?v_113 ?v_66) ?v_131)) (or (or P0 ?v_60) ?v_96)) (or (or ?v_109 ?v_95) ?v_85)) (or (or ?v_149 ?v_90) ?v_27)) (or (or ?v_79 ?v_67) ?v_21)) (or (or ?v_14 ?v_88) ?v_156)) (or (or ?v_13 ?v_84) ?v_127)) (or (or P24 ?v_89) ?v_28))))))))))))))))))))))))))
(check-sat)
(exit)
